p tw 115 121
1 2
2 28
3 14
4 5
5 6
6 7
7 8
8 9
9 10
10 11
10 16
11 12
12 13
13 15
14 20
15 18
16 17
17 18
18 19
20 21
21 22
22 23
23 24
24 25
25 26
25 27
26 18
27 29
28 39
29 30
30 31
31 32
32 33
32 38
33 34
33 36
34 35
35 18
36 37
37 18
38 40
39 50
40 41
41 42
42 43
43 44
44 45
45 46
46 47
47 48
48 49
48 52
49 51
50 61
51 52
52 53
53 54
54 55
55 56
56 57
57 58
58 59
59 60
60 62
61 72
61 105
62 63
62 65
63 64
64 65
65 66
66 67
67 68
68 69
69 70
70 71
71 73
72 83
73 74
74 75
75 76
76 77
77 78
78 79
79 80
80 81
81 82
82 84
83 94
84 85
85 86
86 87
87 88
88 89
89 90
90 91
91 92
92 93
93 95
94 21
95 96
96 97
97 98
98 99
99 100
100 101
101 102
102 103
103 104
104 106
105 3
106 107
107 108
108 109
109 110
110 111
111 112
112 113
113 114
114 115
115 4
